(set-logic QF_S)
(declare-fun var0 () Int)
(declare-fun var1 () String)
(declare-fun var2 () String)
(declare-fun var3 () Int)
(declare-fun var4 () String)
(declare-fun var5 () String)
(declare-fun var6 () Int)
(declare-fun var7 () Int)
(assert (>= (str.to.int (str.at "*Tq" var0)) (str.indexof var1 var2 var3)))
(assert (str.prefixof (str.at (str.replace var4 """le" var5) (str.indexof var5 var1 var6)) (str.replace var2 var2 var5)))
(assert (<= (str.to.int var1) (str.len (str.replace var4 var4 var4))))
(assert (str.contains (str.replace var5 var5 var1) (str.substr (str.substr var5 var7 var6) (str.to.int var4) (str.to.int var2))))
(check-sat)